clingo version 5.6.2
Reading from ...etition/0011-graph_colouring-130-0.asp ...
Solving...
UNKNOWN

TIME LIMIT   : 1
Models       : 0+
Calls        : 1
Time         : 600.029s (Solving: 599.85s 1st Model: 0.00s Unsat: 0.00s)
CPU Time     : 599.598s

Choices      : 12938295
Conflicts    : 11866700 (Analyzed: 11866700)
Restarts     : 23297    (Average: 509.37 Last: 11866493)
Problems     : 1        (Average Length: 0.00 Splits: 0)
Lemmas       : 11866700 (Deleted: 11834409)
  Binary     : 0        (Ratio:   0.00%)
  Ternary    : 11       (Ratio:   0.00%)
  Conflict   : 11866700 (Average Length:   35.0 Ratio: 100.00%) 
  Loop       : 0        (Average Length:    0.0 Ratio:   0.00%) 
  Other      : 0        (Average Length:    0.0 Ratio:   0.00%) 
Backjumps    : 11866700 (Average:  1.07 Max:  12 Sum: 12732732)
  Executed   : 11866700 (Average:  1.07 Max:  12 Sum: 12732732 Ratio: 100.00%)
  Bounded    : 0        (Average:  0.00 Max:   0 Sum:      0 Ratio:   0.00%)

Rules        : 17444   
Atoms        : 3194    
Bodies       : 1280    
Equivalences : 2535     (Atom=Atom: 12 Body=Body: 631 Other: 1892)
Tight        : Yes
Variables    : 768      (Eliminated:    0 Frozen:    0)
Constraints  : 7075     (Binary:  89.3% Ternary:   0.1% Other:  10.6%)

